SECTION GRAPH
NODES 3
EDGES 2
E 1 2 100
E 2 3 50
END 

SECTION Terminals
Terminals 3
T 3
T 2
T 1
END

SECTION Tree Decomposition
s td 2 1 3
b 1 1 2
b 2 2 3 
1 2
END
EOF

// Path of length 2
// Answer: 150